Total weight: 1747.750523299838
Route 1: 0 63 33 28 26 34 0 
Route 2: 0 69 98 88 53 78 60 0 
Route 3: 0 61 68 55 0 
Route 4: 0 65 52 86 9 10 13 17 0 
Route 5: 0 2 7 6 8 46 0 
Route 6: 0 90 94 96 80 0 
Route 7: 0 67 62 85 84 56 91 0 
Route 8: 0 47 14 12 73 79 0 
Route 9: 0 82 99 57 66 0 
Route 10: 0 39 38 36 41 54 81 0 
Route 11: 0 11 15 16 75 58 77 0 
Route 12: 0 83 23 21 18 48 25 0 
Route 13: 0 64 19 49 22 20 24 0 
Route 14: 0 59 87 97 74 0 
Route 15: 0 45 5 3 1 4 100 70 0 
Route 16: 0 27 29 31 30 32 50 71 93 0 
Route 17: 0 92 95 51 76 89 0 
Route 18: 0 72 42 44 40 43 37 35 0 
